param d:     1    2:=
1 19.0 1.526
2 1.0 1.76286
3 1.0 2.92254
4 17.0 2.49139
5 1.0 3.05109
6 14.0 2.92064
7 3.0 3.52256
8 1.0 3.93764
9 2.0 4.57587
10 6.0 4.31457
11 3.0 3.83962
12 4.0 4.57588
13 5.0 3.52257
14 2.0 4.31265
15 1.0 4.57527
16 1.0 4.31137
17 1.0 3.83675
18 1.0 4.98169
19 3.0 4.57649
20 1.0 4.57648
21 1.0 4.31392
22 1.0 2.91968
23 1.0 2.48916
;
param m :=23;
param l :=20;
end;
